9 18 5 14 15 15 15 19 16 2 9 2 
5 7 13 12 16 15 9 17 16 8 9 3 
18 20 9 20 15 18 2 1 12 2 18 2 
14 18 7 1 15 20 19 5 16 19 16 3 
4 6 1 6 6 7 11 13 1 10 20 7 
14 17 8 14 1 2 18 6 4 14 7 15 
19 11 8 15 2 19 3 3 17 17 9 17 
11 19 6 4 8 19 9 17 8 3 1 20 
6 19 17 15 2 14 17 18 5 20 13 1 
13 4 12 9 6 14 12 10 8 4 4 11 
20 15 15 9 12 8 12 8 15 2 19 1 
12 16 7 9 18 6 13 11 12 11 16 17 
